benchmarks/VRPTW/TSPTW/solution/n20w160.003.txt.solution
1 11 12 8 6 16 13 10 9 19 18 14 3 2 5 4 21 7 17 20 15 
201
